NAME : amz0148.121100_112100.tour
COMMENT : Cost = 121100_112100
COMMENT : Found by LKH-AMZ [Keld Helsgaun] Sun May 11 12:17:22 2025
COMMENT : TW viol.: 0 #: 0
TYPE : TOUR
DIMENSION : 113
TOUR_SECTION
28
39
27
33
92
50
12
66
57
113
53
10
59
47
8
73
75
25
78
67
97
76
112
58
80
35
16
65
91
45
72
108
52
34
2
32
46
102
98
103
77
69
5
62
14
38
30
79
105
22
20
21
26
6
13
89
93
68
31
3
71
101
61
88
4
24
54
42
60
87
110
84
96
111
85
1
29
83
90
49
36
17
11
56
104
48
99
70
81
7
100
63
41
23
19
95
74
9
37
40
51
44
86
55
18
94
43
106
64
15
107
109
82
-1
EOF
